certificates/rado_a27_c21_N205.cnf
c Rad2 upper bound instance: x1 + 27*x2 - x3 = 21, interval [1,205]
p cnf 205 1672
1 7 0
-1 -7 0
1 2 34 0
-1 -2 -34 0
1 3 61 0
-1 -3 -61 0
1 4 88 0
-1 -4 -88 0
1 5 115 0
-1 -5 -115 0
1 6 142 0
-1 -6 -142 0
1 7 169 0
-1 -7 -169 0
1 8 196 0
-1 -8 -196 0
1 2 8 0
-1 -2 -8 0
2 35 0
-2 -35 0
2 3 62 0
-2 -3 -62 0
2 4 89 0
-2 -4 -89 0
2 5 116 0
-2 -5 -116 0
2 6 143 0
-2 -6 -143 0
2 7 170 0
-2 -7 -170 0
2 8 197 0
-2 -8 -197 0
1 3 9 0
-1 -3 -9 0
2 3 36 0
-2 -3 -36 0
3 63 0
-3 -63 0
3 4 90 0
-3 -4 -90 0
3 5 117 0
-3 -5 -117 0
3 6 144 0
-3 -6 -144 0
3 7 171 0
-3 -7 -171 0
3 8 198 0
-3 -8 -198 0
1 4 10 0
-1 -4 -10 0
2 4 37 0
-2 -4 -37 0
3 4 64 0
-3 -4 -64 0
4 91 0
-4 -91 0
4 5 118 0
-4 -5 -118 0
4 6 145 0
-4 -6 -145 0
4 7 172 0
-4 -7 -172 0
4 8 199 0
-4 -8 -199 0
1 5 11 0
-1 -5 -11 0
2 5 38 0
-2 -5 -38 0
3 5 65 0
-3 -5 -65 0
4 5 92 0
-4 -5 -92 0
5 119 0
-5 -119 0
5 6 146 0
-5 -6 -146 0
5 7 173 0
-5 -7 -173 0
5 8 200 0
-5 -8 -200 0
1 6 12 0
-1 -6 -12 0
2 6 39 0
-2 -6 -39 0
3 6 66 0
-3 -6 -66 0
4 6 93 0
-4 -6 -93 0
5 6 120 0
-5 -6 -120 0
6 147 0
-6 -147 0
6 7 174 0
-6 -7 -174 0
6 8 201 0
-6 -8 -201 0
1 7 13 0
-1 -7 -13 0
2 7 40 0
-2 -7 -40 0
3 7 67 0
-3 -7 -67 0
4 7 94 0
-4 -7 -94 0
5 7 121 0
-5 -7 -121 0
6 7 148 0
-6 -7 -148 0
7 175 0
-7 -175 0
7 8 202 0
-7 -8 -202 0
1 8 14 0
-1 -8 -14 0
2 8 41 0
-2 -8 -41 0
3 8 68 0
-3 -8 -68 0
4 8 95 0
-4 -8 -95 0
5 8 122 0
-5 -8 -122 0
6 8 149 0
-6 -8 -149 0
7 8 176 0
-7 -8 -176 0
8 203 0
-8 -203 0
1 9 15 0
-1 -9 -15 0
2 9 42 0
-2 -9 -42 0
3 9 69 0
-3 -9 -69 0
4 9 96 0
-4 -9 -96 0
5 9 123 0
-5 -9 -123 0
6 9 150 0
-6 -9 -150 0
7 9 177 0
-7 -9 -177 0
8 9 204 0
-8 -9 -204 0
1 10 16 0
-1 -10 -16 0
2 10 43 0
-2 -10 -43 0
3 10 70 0
-3 -10 -70 0
4 10 97 0
-4 -10 -97 0
5 10 124 0
-5 -10 -124 0
6 10 151 0
-6 -10 -151 0
7 10 178 0
-7 -10 -178 0
8 10 205 0
-8 -10 -205 0
1 11 17 0
-1 -11 -17 0
2 11 44 0
-2 -11 -44 0
3 11 71 0
-3 -11 -71 0
4 11 98 0
-4 -11 -98 0
5 11 125 0
-5 -11 -125 0
6 11 152 0
-6 -11 -152 0
7 11 179 0
-7 -11 -179 0
1 12 18 0
-1 -12 -18 0
2 12 45 0
-2 -12 -45 0
3 12 72 0
-3 -12 -72 0
4 12 99 0
-4 -12 -99 0
5 12 126 0
-5 -12 -126 0
6 12 153 0
-6 -12 -153 0
7 12 180 0
-7 -12 -180 0
1 13 19 0
-1 -13 -19 0
2 13 46 0
-2 -13 -46 0
3 13 73 0
-3 -13 -73 0
4 13 100 0
-4 -13 -100 0
5 13 127 0
-5 -13 -127 0
6 13 154 0
-6 -13 -154 0
7 13 181 0
-7 -13 -181 0
1 14 20 0
-1 -14 -20 0
2 14 47 0
-2 -14 -47 0
3 14 74 0
-3 -14 -74 0
4 14 101 0
-4 -14 -101 0
5 14 128 0
-5 -14 -128 0
6 14 155 0
-6 -14 -155 0
7 14 182 0
-7 -14 -182 0
1 15 21 0
-1 -15 -21 0
2 15 48 0
-2 -15 -48 0
3 15 75 0
-3 -15 -75 0
4 15 102 0
-4 -15 -102 0
5 15 129 0
-5 -15 -129 0
6 15 156 0
-6 -15 -156 0
7 15 183 0
-7 -15 -183 0
1 16 22 0
-1 -16 -22 0
2 16 49 0
-2 -16 -49 0
3 16 76 0
-3 -16 -76 0
4 16 103 0
-4 -16 -103 0
5 16 130 0
-5 -16 -130 0
6 16 157 0
-6 -16 -157 0
7 16 184 0
-7 -16 -184 0
1 17 23 0
-1 -17 -23 0
2 17 50 0
-2 -17 -50 0
3 17 77 0
-3 -17 -77 0
4 17 104 0
-4 -17 -104 0
5 17 131 0
-5 -17 -131 0
6 17 158 0
-6 -17 -158 0
7 17 185 0
-7 -17 -185 0
1 18 24 0
-1 -18 -24 0
2 18 51 0
-2 -18 -51 0
3 18 78 0
-3 -18 -78 0
4 18 105 0
-4 -18 -105 0
5 18 132 0
-5 -18 -132 0
6 18 159 0
-6 -18 -159 0
7 18 186 0
-7 -18 -186 0
1 19 25 0
-1 -19 -25 0
2 19 52 0
-2 -19 -52 0
3 19 79 0
-3 -19 -79 0
4 19 106 0
-4 -19 -106 0
5 19 133 0
-5 -19 -133 0
6 19 160 0
-6 -19 -160 0
7 19 187 0
-7 -19 -187 0
1 20 26 0
-1 -20 -26 0
2 20 53 0
-2 -20 -53 0
3 20 80 0
-3 -20 -80 0
4 20 107 0
-4 -20 -107 0
5 20 134 0
-5 -20 -134 0
6 20 161 0
-6 -20 -161 0
7 20 188 0
-7 -20 -188 0
1 21 27 0
-1 -21 -27 0
2 21 54 0
-2 -21 -54 0
3 21 81 0
-3 -21 -81 0
4 21 108 0
-4 -21 -108 0
5 21 135 0
-5 -21 -135 0
6 21 162 0
-6 -21 -162 0
7 21 189 0
-7 -21 -189 0
1 22 28 0
-1 -22 -28 0
2 22 55 0
-2 -22 -55 0
3 22 82 0
-3 -22 -82 0
4 22 109 0
-4 -22 -109 0
5 22 136 0
-5 -22 -136 0
6 22 163 0
-6 -22 -163 0
7 22 190 0
-7 -22 -190 0
1 23 29 0
-1 -23 -29 0
2 23 56 0
-2 -23 -56 0
3 23 83 0
-3 -23 -83 0
4 23 110 0
-4 -23 -110 0
5 23 137 0
-5 -23 -137 0
6 23 164 0
-6 -23 -164 0
7 23 191 0
-7 -23 -191 0
1 24 30 0
-1 -24 -30 0
2 24 57 0
-2 -24 -57 0
3 24 84 0
-3 -24 -84 0
4 24 111 0
-4 -24 -111 0
5 24 138 0
-5 -24 -138 0
6 24 165 0
-6 -24 -165 0
7 24 192 0
-7 -24 -192 0
1 25 31 0
-1 -25 -31 0
2 25 58 0
-2 -25 -58 0
3 25 85 0
-3 -25 -85 0
4 25 112 0
-4 -25 -112 0
5 25 139 0
-5 -25 -139 0
6 25 166 0
-6 -25 -166 0
7 25 193 0
-7 -25 -193 0
1 26 32 0
-1 -26 -32 0
2 26 59 0
-2 -26 -59 0
3 26 86 0
-3 -26 -86 0
4 26 113 0
-4 -26 -113 0
5 26 140 0
-5 -26 -140 0
6 26 167 0
-6 -26 -167 0
7 26 194 0
-7 -26 -194 0
1 27 33 0
-1 -27 -33 0
2 27 60 0
-2 -27 -60 0
3 27 87 0
-3 -27 -87 0
4 27 114 0
-4 -27 -114 0
5 27 141 0
-5 -27 -141 0
6 27 168 0
-6 -27 -168 0
7 27 195 0
-7 -27 -195 0
1 28 34 0
-1 -28 -34 0
2 28 61 0
-2 -28 -61 0
3 28 88 0
-3 -28 -88 0
4 28 115 0
-4 -28 -115 0
5 28 142 0
-5 -28 -142 0
6 28 169 0
-6 -28 -169 0
7 28 196 0
-7 -28 -196 0
1 29 35 0
-1 -29 -35 0
2 29 62 0
-2 -29 -62 0
3 29 89 0
-3 -29 -89 0
4 29 116 0
-4 -29 -116 0
5 29 143 0
-5 -29 -143 0
6 29 170 0
-6 -29 -170 0
7 29 197 0
-7 -29 -197 0
1 30 36 0
-1 -30 -36 0
2 30 63 0
-2 -30 -63 0
3 30 90 0
-3 -30 -90 0
4 30 117 0
-4 -30 -117 0
5 30 144 0
-5 -30 -144 0
6 30 171 0
-6 -30 -171 0
7 30 198 0
-7 -30 -198 0
1 31 37 0
-1 -31 -37 0
2 31 64 0
-2 -31 -64 0
3 31 91 0
-3 -31 -91 0
4 31 118 0
-4 -31 -118 0
5 31 145 0
-5 -31 -145 0
6 31 172 0
-6 -31 -172 0
7 31 199 0
-7 -31 -199 0
1 32 38 0
-1 -32 -38 0
2 32 65 0
-2 -32 -65 0
3 32 92 0
-3 -32 -92 0
4 32 119 0
-4 -32 -119 0
5 32 146 0
-5 -32 -146 0
6 32 173 0
-6 -32 -173 0
7 32 200 0
-7 -32 -200 0
1 33 39 0
-1 -33 -39 0
2 33 66 0
-2 -33 -66 0
3 33 93 0
-3 -33 -93 0
4 33 120 0
-4 -33 -120 0
5 33 147 0
-5 -33 -147 0
6 33 174 0
-6 -33 -174 0
7 33 201 0
-7 -33 -201 0
1 34 40 0
-1 -34 -40 0
2 34 67 0
-2 -34 -67 0
3 34 94 0
-3 -34 -94 0
4 34 121 0
-4 -34 -121 0
5 34 148 0
-5 -34 -148 0
6 34 175 0
-6 -34 -175 0
7 34 202 0
-7 -34 -202 0
1 35 41 0
-1 -35 -41 0
2 35 68 0
-2 -35 -68 0
3 35 95 0
-3 -35 -95 0
4 35 122 0
-4 -35 -122 0
5 35 149 0
-5 -35 -149 0
6 35 176 0
-6 -35 -176 0
7 35 203 0
-7 -35 -203 0
1 36 42 0
-1 -36 -42 0
2 36 69 0
-2 -36 -69 0
3 36 96 0
-3 -36 -96 0
4 36 123 0
-4 -36 -123 0
5 36 150 0
-5 -36 -150 0
6 36 177 0
-6 -36 -177 0
7 36 204 0
-7 -36 -204 0
1 37 43 0
-1 -37 -43 0
2 37 70 0
-2 -37 -70 0
3 37 97 0
-3 -37 -97 0
4 37 124 0
-4 -37 -124 0
5 37 151 0
-5 -37 -151 0
6 37 178 0
-6 -37 -178 0
7 37 205 0
-7 -37 -205 0
1 38 44 0
-1 -38 -44 0
2 38 71 0
-2 -38 -71 0
3 38 98 0
-3 -38 -98 0
4 38 125 0
-4 -38 -125 0
5 38 152 0
-5 -38 -152 0
6 38 179 0
-6 -38 -179 0
1 39 45 0
-1 -39 -45 0
2 39 72 0
-2 -39 -72 0
3 39 99 0
-3 -39 -99 0
4 39 126 0
-4 -39 -126 0
5 39 153 0
-5 -39 -153 0
6 39 180 0
-6 -39 -180 0
1 40 46 0
-1 -40 -46 0
2 40 73 0
-2 -40 -73 0
3 40 100 0
-3 -40 -100 0
4 40 127 0
-4 -40 -127 0
5 40 154 0
-5 -40 -154 0
6 40 181 0
-6 -40 -181 0
1 41 47 0
-1 -41 -47 0
2 41 74 0
-2 -41 -74 0
3 41 101 0
-3 -41 -101 0
4 41 128 0
-4 -41 -128 0
5 41 155 0
-5 -41 -155 0
6 41 182 0
-6 -41 -182 0
1 42 48 0
-1 -42 -48 0
2 42 75 0
-2 -42 -75 0
3 42 102 0
-3 -42 -102 0
4 42 129 0
-4 -42 -129 0
5 42 156 0
-5 -42 -156 0
6 42 183 0
-6 -42 -183 0
1 43 49 0
-1 -43 -49 0
2 43 76 0
-2 -43 -76 0
3 43 103 0
-3 -43 -103 0
4 43 130 0
-4 -43 -130 0
5 43 157 0
-5 -43 -157 0
6 43 184 0
-6 -43 -184 0
1 44 50 0
-1 -44 -50 0
2 44 77 0
-2 -44 -77 0
3 44 104 0
-3 -44 -104 0
4 44 131 0
-4 -44 -131 0
5 44 158 0
-5 -44 -158 0
6 44 185 0
-6 -44 -185 0
1 45 51 0
-1 -45 -51 0
2 45 78 0
-2 -45 -78 0
3 45 105 0
-3 -45 -105 0
4 45 132 0
-4 -45 -132 0
5 45 159 0
-5 -45 -159 0
6 45 186 0
-6 -45 -186 0
1 46 52 0
-1 -46 -52 0
2 46 79 0
-2 -46 -79 0
3 46 106 0
-3 -46 -106 0
4 46 133 0
-4 -46 -133 0
5 46 160 0
-5 -46 -160 0
6 46 187 0
-6 -46 -187 0
1 47 53 0
-1 -47 -53 0
2 47 80 0
-2 -47 -80 0
3 47 107 0
-3 -47 -107 0
4 47 134 0
-4 -47 -134 0
5 47 161 0
-5 -47 -161 0
6 47 188 0
-6 -47 -188 0
1 48 54 0
-1 -48 -54 0
2 48 81 0
-2 -48 -81 0
3 48 108 0
-3 -48 -108 0
4 48 135 0
-4 -48 -135 0
5 48 162 0
-5 -48 -162 0
6 48 189 0
-6 -48 -189 0
1 49 55 0
-1 -49 -55 0
2 49 82 0
-2 -49 -82 0
3 49 109 0
-3 -49 -109 0
4 49 136 0
-4 -49 -136 0
5 49 163 0
-5 -49 -163 0
6 49 190 0
-6 -49 -190 0
1 50 56 0
-1 -50 -56 0
2 50 83 0
-2 -50 -83 0
3 50 110 0
-3 -50 -110 0
4 50 137 0
-4 -50 -137 0
5 50 164 0
-5 -50 -164 0
6 50 191 0
-6 -50 -191 0
1 51 57 0
-1 -51 -57 0
2 51 84 0
-2 -51 -84 0
3 51 111 0
-3 -51 -111 0
4 51 138 0
-4 -51 -138 0
5 51 165 0
-5 -51 -165 0
6 51 192 0
-6 -51 -192 0
1 52 58 0
-1 -52 -58 0
2 52 85 0
-2 -52 -85 0
3 52 112 0
-3 -52 -112 0
4 52 139 0
-4 -52 -139 0
5 52 166 0
-5 -52 -166 0
6 52 193 0
-6 -52 -193 0
1 53 59 0
-1 -53 -59 0
2 53 86 0
-2 -53 -86 0
3 53 113 0
-3 -53 -113 0
4 53 140 0
-4 -53 -140 0
5 53 167 0
-5 -53 -167 0
6 53 194 0
-6 -53 -194 0
1 54 60 0
-1 -54 -60 0
2 54 87 0
-2 -54 -87 0
3 54 114 0
-3 -54 -114 0
4 54 141 0
-4 -54 -141 0
5 54 168 0
-5 -54 -168 0
6 54 195 0
-6 -54 -195 0
1 55 61 0
-1 -55 -61 0
2 55 88 0
-2 -55 -88 0
3 55 115 0
-3 -55 -115 0
4 55 142 0
-4 -55 -142 0
5 55 169 0
-5 -55 -169 0
6 55 196 0
-6 -55 -196 0
1 56 62 0
-1 -56 -62 0
2 56 89 0
-2 -56 -89 0
3 56 116 0
-3 -56 -116 0
4 56 143 0
-4 -56 -143 0
5 56 170 0
-5 -56 -170 0
6 56 197 0
-6 -56 -197 0
1 57 63 0
-1 -57 -63 0
2 57 90 0
-2 -57 -90 0
3 57 117 0
-3 -57 -117 0
4 57 144 0
-4 -57 -144 0
5 57 171 0
-5 -57 -171 0
6 57 198 0
-6 -57 -198 0
1 58 64 0
-1 -58 -64 0
2 58 91 0
-2 -58 -91 0
3 58 118 0
-3 -58 -118 0
4 58 145 0
-4 -58 -145 0
5 58 172 0
-5 -58 -172 0
6 58 199 0
-6 -58 -199 0
1 59 65 0
-1 -59 -65 0
2 59 92 0
-2 -59 -92 0
3 59 119 0
-3 -59 -119 0
4 59 146 0
-4 -59 -146 0
5 59 173 0
-5 -59 -173 0
6 59 200 0
-6 -59 -200 0
1 60 66 0
-1 -60 -66 0
2 60 93 0
-2 -60 -93 0
3 60 120 0
-3 -60 -120 0
4 60 147 0
-4 -60 -147 0
5 60 174 0
-5 -60 -174 0
6 60 201 0
-6 -60 -201 0
1 61 67 0
-1 -61 -67 0
2 61 94 0
-2 -61 -94 0
3 61 121 0
-3 -61 -121 0
4 61 148 0
-4 -61 -148 0
5 61 175 0
-5 -61 -175 0
6 61 202 0
-6 -61 -202 0
1 62 68 0
-1 -62 -68 0
2 62 95 0
-2 -62 -95 0
3 62 122 0
-3 -62 -122 0
4 62 149 0
-4 -62 -149 0
5 62 176 0
-5 -62 -176 0
6 62 203 0
-6 -62 -203 0
1 63 69 0
-1 -63 -69 0
2 63 96 0
-2 -63 -96 0
3 63 123 0
-3 -63 -123 0
4 63 150 0
-4 -63 -150 0
5 63 177 0
-5 -63 -177 0
6 63 204 0
-6 -63 -204 0
1 64 70 0
-1 -64 -70 0
2 64 97 0
-2 -64 -97 0
3 64 124 0
-3 -64 -124 0
4 64 151 0
-4 -64 -151 0
5 64 178 0
-5 -64 -178 0
6 64 205 0
-6 -64 -205 0
1 65 71 0
-1 -65 -71 0
2 65 98 0
-2 -65 -98 0
3 65 125 0
-3 -65 -125 0
4 65 152 0
-4 -65 -152 0
5 65 179 0
-5 -65 -179 0
1 66 72 0
-1 -66 -72 0
2 66 99 0
-2 -66 -99 0
3 66 126 0
-3 -66 -126 0
4 66 153 0
-4 -66 -153 0
5 66 180 0
-5 -66 -180 0
1 67 73 0
-1 -67 -73 0
2 67 100 0
-2 -67 -100 0
3 67 127 0
-3 -67 -127 0
4 67 154 0
-4 -67 -154 0
5 67 181 0
-5 -67 -181 0
1 68 74 0
-1 -68 -74 0
2 68 101 0
-2 -68 -101 0
3 68 128 0
-3 -68 -128 0
4 68 155 0
-4 -68 -155 0
5 68 182 0
-5 -68 -182 0
1 69 75 0
-1 -69 -75 0
2 69 102 0
-2 -69 -102 0
3 69 129 0
-3 -69 -129 0
4 69 156 0
-4 -69 -156 0
5 69 183 0
-5 -69 -183 0
1 70 76 0
-1 -70 -76 0
2 70 103 0
-2 -70 -103 0
3 70 130 0
-3 -70 -130 0
4 70 157 0
-4 -70 -157 0
5 70 184 0
-5 -70 -184 0
1 71 77 0
-1 -71 -77 0
2 71 104 0
-2 -71 -104 0
3 71 131 0
-3 -71 -131 0
4 71 158 0
-4 -71 -158 0
5 71 185 0
-5 -71 -185 0
1 72 78 0
-1 -72 -78 0
2 72 105 0
-2 -72 -105 0
3 72 132 0
-3 -72 -132 0
4 72 159 0
-4 -72 -159 0
5 72 186 0
-5 -72 -186 0
1 73 79 0
-1 -73 -79 0
2 73 106 0
-2 -73 -106 0
3 73 133 0
-3 -73 -133 0
4 73 160 0
-4 -73 -160 0
5 73 187 0
-5 -73 -187 0
1 74 80 0
-1 -74 -80 0
2 74 107 0
-2 -74 -107 0
3 74 134 0
-3 -74 -134 0
4 74 161 0
-4 -74 -161 0
5 74 188 0
-5 -74 -188 0
1 75 81 0
-1 -75 -81 0
2 75 108 0
-2 -75 -108 0
3 75 135 0
-3 -75 -135 0
4 75 162 0
-4 -75 -162 0
5 75 189 0
-5 -75 -189 0
1 76 82 0
-1 -76 -82 0
2 76 109 0
-2 -76 -109 0
3 76 136 0
-3 -76 -136 0
4 76 163 0
-4 -76 -163 0
5 76 190 0
-5 -76 -190 0
1 77 83 0
-1 -77 -83 0
2 77 110 0
-2 -77 -110 0
3 77 137 0
-3 -77 -137 0
4 77 164 0
-4 -77 -164 0
5 77 191 0
-5 -77 -191 0
1 78 84 0
-1 -78 -84 0
2 78 111 0
-2 -78 -111 0
3 78 138 0
-3 -78 -138 0
4 78 165 0
-4 -78 -165 0
5 78 192 0
-5 -78 -192 0
1 79 85 0
-1 -79 -85 0
2 79 112 0
-2 -79 -112 0
3 79 139 0
-3 -79 -139 0
4 79 166 0
-4 -79 -166 0
5 79 193 0
-5 -79 -193 0
1 80 86 0
-1 -80 -86 0
2 80 113 0
-2 -80 -113 0
3 80 140 0
-3 -80 -140 0
4 80 167 0
-4 -80 -167 0
5 80 194 0
-5 -80 -194 0
1 81 87 0
-1 -81 -87 0
2 81 114 0
-2 -81 -114 0
3 81 141 0
-3 -81 -141 0
4 81 168 0
-4 -81 -168 0
5 81 195 0
-5 -81 -195 0
1 82 88 0
-1 -82 -88 0
2 82 115 0
-2 -82 -115 0
3 82 142 0
-3 -82 -142 0
4 82 169 0
-4 -82 -169 0
5 82 196 0
-5 -82 -196 0
1 83 89 0
-1 -83 -89 0
2 83 116 0
-2 -83 -116 0
3 83 143 0
-3 -83 -143 0
4 83 170 0
-4 -83 -170 0
5 83 197 0
-5 -83 -197 0
1 84 90 0
-1 -84 -90 0
2 84 117 0
-2 -84 -117 0
3 84 144 0
-3 -84 -144 0
4 84 171 0
-4 -84 -171 0
5 84 198 0
-5 -84 -198 0
1 85 91 0
-1 -85 -91 0
2 85 118 0
-2 -85 -118 0
3 85 145 0
-3 -85 -145 0
4 85 172 0
-4 -85 -172 0
5 85 199 0
-5 -85 -199 0
1 86 92 0
-1 -86 -92 0
2 86 119 0
-2 -86 -119 0
3 86 146 0
-3 -86 -146 0
4 86 173 0
-4 -86 -173 0
5 86 200 0
-5 -86 -200 0
1 87 93 0
-1 -87 -93 0
2 87 120 0
-2 -87 -120 0
3 87 147 0
-3 -87 -147 0
4 87 174 0
-4 -87 -174 0
5 87 201 0
-5 -87 -201 0
1 88 94 0
-1 -88 -94 0
2 88 121 0
-2 -88 -121 0
3 88 148 0
-3 -88 -148 0
4 88 175 0
-4 -88 -175 0
5 88 202 0
-5 -88 -202 0
1 89 95 0
-1 -89 -95 0
2 89 122 0
-2 -89 -122 0
3 89 149 0
-3 -89 -149 0
4 89 176 0
-4 -89 -176 0
5 89 203 0
-5 -89 -203 0
1 90 96 0
-1 -90 -96 0
2 90 123 0
-2 -90 -123 0
3 90 150 0
-3 -90 -150 0
4 90 177 0
-4 -90 -177 0
5 90 204 0
-5 -90 -204 0
1 91 97 0
-1 -91 -97 0
2 91 124 0
-2 -91 -124 0
3 91 151 0
-3 -91 -151 0
4 91 178 0
-4 -91 -178 0
5 91 205 0
-5 -91 -205 0
1 92 98 0
-1 -92 -98 0
2 92 125 0
-2 -92 -125 0
3 92 152 0
-3 -92 -152 0
4 92 179 0
-4 -92 -179 0
1 93 99 0
-1 -93 -99 0
2 93 126 0
-2 -93 -126 0
3 93 153 0
-3 -93 -153 0
4 93 180 0
-4 -93 -180 0
1 94 100 0
-1 -94 -100 0
2 94 127 0
-2 -94 -127 0
3 94 154 0
-3 -94 -154 0
4 94 181 0
-4 -94 -181 0
1 95 101 0
-1 -95 -101 0
2 95 128 0
-2 -95 -128 0
3 95 155 0
-3 -95 -155 0
4 95 182 0
-4 -95 -182 0
1 96 102 0
-1 -96 -102 0
2 96 129 0
-2 -96 -129 0
3 96 156 0
-3 -96 -156 0
4 96 183 0
-4 -96 -183 0
1 97 103 0
-1 -97 -103 0
2 97 130 0
-2 -97 -130 0
3 97 157 0
-3 -97 -157 0
4 97 184 0
-4 -97 -184 0
1 98 104 0
-1 -98 -104 0
2 98 131 0
-2 -98 -131 0
3 98 158 0
-3 -98 -158 0
4 98 185 0
-4 -98 -185 0
1 99 105 0
-1 -99 -105 0
2 99 132 0
-2 -99 -132 0
3 99 159 0
-3 -99 -159 0
4 99 186 0
-4 -99 -186 0
1 100 106 0
-1 -100 -106 0
2 100 133 0
-2 -100 -133 0
3 100 160 0
-3 -100 -160 0
4 100 187 0
-4 -100 -187 0
1 101 107 0
-1 -101 -107 0
2 101 134 0
-2 -101 -134 0
3 101 161 0
-3 -101 -161 0
4 101 188 0
-4 -101 -188 0
1 102 108 0
-1 -102 -108 0
2 102 135 0
-2 -102 -135 0
3 102 162 0
-3 -102 -162 0
4 102 189 0
-4 -102 -189 0
1 103 109 0
-1 -103 -109 0
2 103 136 0
-2 -103 -136 0
3 103 163 0
-3 -103 -163 0
4 103 190 0
-4 -103 -190 0
1 104 110 0
-1 -104 -110 0
2 104 137 0
-2 -104 -137 0
3 104 164 0
-3 -104 -164 0
4 104 191 0
-4 -104 -191 0
1 105 111 0
-1 -105 -111 0
2 105 138 0
-2 -105 -138 0
3 105 165 0
-3 -105 -165 0
4 105 192 0
-4 -105 -192 0
1 106 112 0
-1 -106 -112 0
2 106 139 0
-2 -106 -139 0
3 106 166 0
-3 -106 -166 0
4 106 193 0
-4 -106 -193 0
1 107 113 0
-1 -107 -113 0
2 107 140 0
-2 -107 -140 0
3 107 167 0
-3 -107 -167 0
4 107 194 0
-4 -107 -194 0
1 108 114 0
-1 -108 -114 0
2 108 141 0
-2 -108 -141 0
3 108 168 0
-3 -108 -168 0
4 108 195 0
-4 -108 -195 0
1 109 115 0
-1 -109 -115 0
2 109 142 0
-2 -109 -142 0
3 109 169 0
-3 -109 -169 0
4 109 196 0
-4 -109 -196 0
1 110 116 0
-1 -110 -116 0
2 110 143 0
-2 -110 -143 0
3 110 170 0
-3 -110 -170 0
4 110 197 0
-4 -110 -197 0
1 111 117 0
-1 -111 -117 0
2 111 144 0
-2 -111 -144 0
3 111 171 0
-3 -111 -171 0
4 111 198 0
-4 -111 -198 0
1 112 118 0
-1 -112 -118 0
2 112 145 0
-2 -112 -145 0
3 112 172 0
-3 -112 -172 0
4 112 199 0
-4 -112 -199 0
1 113 119 0
-1 -113 -119 0
2 113 146 0
-2 -113 -146 0
3 113 173 0
-3 -113 -173 0
4 113 200 0
-4 -113 -200 0
1 114 120 0
-1 -114 -120 0
2 114 147 0
-2 -114 -147 0
3 114 174 0
-3 -114 -174 0
4 114 201 0
-4 -114 -201 0
1 115 121 0
-1 -115 -121 0
2 115 148 0
-2 -115 -148 0
3 115 175 0
-3 -115 -175 0
4 115 202 0
-4 -115 -202 0
1 116 122 0
-1 -116 -122 0
2 116 149 0
-2 -116 -149 0
3 116 176 0
-3 -116 -176 0
4 116 203 0
-4 -116 -203 0
1 117 123 0
-1 -117 -123 0
2 117 150 0
-2 -117 -150 0
3 117 177 0
-3 -117 -177 0
4 117 204 0
-4 -117 -204 0
1 118 124 0
-1 -118 -124 0
2 118 151 0
-2 -118 -151 0
3 118 178 0
-3 -118 -178 0
4 118 205 0
-4 -118 -205 0
1 119 125 0
-1 -119 -125 0
2 119 152 0
-2 -119 -152 0
3 119 179 0
-3 -119 -179 0
1 120 126 0
-1 -120 -126 0
2 120 153 0
-2 -120 -153 0
3 120 180 0
-3 -120 -180 0
1 121 127 0
-1 -121 -127 0
2 121 154 0
-2 -121 -154 0
3 121 181 0
-3 -121 -181 0
1 122 128 0
-1 -122 -128 0
2 122 155 0
-2 -122 -155 0
3 122 182 0
-3 -122 -182 0
1 123 129 0
-1 -123 -129 0
2 123 156 0
-2 -123 -156 0
3 123 183 0
-3 -123 -183 0
1 124 130 0
-1 -124 -130 0
2 124 157 0
-2 -124 -157 0
3 124 184 0
-3 -124 -184 0
1 125 131 0
-1 -125 -131 0
2 125 158 0
-2 -125 -158 0
3 125 185 0
-3 -125 -185 0
1 126 132 0
-1 -126 -132 0
2 126 159 0
-2 -126 -159 0
3 126 186 0
-3 -126 -186 0
1 127 133 0
-1 -127 -133 0
2 127 160 0
-2 -127 -160 0
3 127 187 0
-3 -127 -187 0
1 128 134 0
-1 -128 -134 0
2 128 161 0
-2 -128 -161 0
3 128 188 0
-3 -128 -188 0
1 129 135 0
-1 -129 -135 0
2 129 162 0
-2 -129 -162 0
3 129 189 0
-3 -129 -189 0
1 130 136 0
-1 -130 -136 0
2 130 163 0
-2 -130 -163 0
3 130 190 0
-3 -130 -190 0
1 131 137 0
-1 -131 -137 0
2 131 164 0
-2 -131 -164 0
3 131 191 0
-3 -131 -191 0
1 132 138 0
-1 -132 -138 0
2 132 165 0
-2 -132 -165 0
3 132 192 0
-3 -132 -192 0
1 133 139 0
-1 -133 -139 0
2 133 166 0
-2 -133 -166 0
3 133 193 0
-3 -133 -193 0
1 134 140 0
-1 -134 -140 0
2 134 167 0
-2 -134 -167 0
3 134 194 0
-3 -134 -194 0
1 135 141 0
-1 -135 -141 0
2 135 168 0
-2 -135 -168 0
3 135 195 0
-3 -135 -195 0
1 136 142 0
-1 -136 -142 0
2 136 169 0
-2 -136 -169 0
3 136 196 0
-3 -136 -196 0
1 137 143 0
-1 -137 -143 0
2 137 170 0
-2 -137 -170 0
3 137 197 0
-3 -137 -197 0
1 138 144 0
-1 -138 -144 0
2 138 171 0
-2 -138 -171 0
3 138 198 0
-3 -138 -198 0
1 139 145 0
-1 -139 -145 0
2 139 172 0
-2 -139 -172 0
3 139 199 0
-3 -139 -199 0
1 140 146 0
-1 -140 -146 0
2 140 173 0
-2 -140 -173 0
3 140 200 0
-3 -140 -200 0
1 141 147 0
-1 -141 -147 0
2 141 174 0
-2 -141 -174 0
3 141 201 0
-3 -141 -201 0
1 142 148 0
-1 -142 -148 0
2 142 175 0
-2 -142 -175 0
3 142 202 0
-3 -142 -202 0
1 143 149 0
-1 -143 -149 0
2 143 176 0
-2 -143 -176 0
3 143 203 0
-3 -143 -203 0
1 144 150 0
-1 -144 -150 0
2 144 177 0
-2 -144 -177 0
3 144 204 0
-3 -144 -204 0
1 145 151 0
-1 -145 -151 0
2 145 178 0
-2 -145 -178 0
3 145 205 0
-3 -145 -205 0
1 146 152 0
-1 -146 -152 0
2 146 179 0
-2 -146 -179 0
1 147 153 0
-1 -147 -153 0
2 147 180 0
-2 -147 -180 0
1 148 154 0
-1 -148 -154 0
2 148 181 0
-2 -148 -181 0
1 149 155 0
-1 -149 -155 0
2 149 182 0
-2 -149 -182 0
1 150 156 0
-1 -150 -156 0
2 150 183 0
-2 -150 -183 0
1 151 157 0
-1 -151 -157 0
2 151 184 0
-2 -151 -184 0
1 152 158 0
-1 -152 -158 0
2 152 185 0
-2 -152 -185 0
1 153 159 0
-1 -153 -159 0
2 153 186 0
-2 -153 -186 0
1 154 160 0
-1 -154 -160 0
2 154 187 0
-2 -154 -187 0
1 155 161 0
-1 -155 -161 0
2 155 188 0
-2 -155 -188 0
1 156 162 0
-1 -156 -162 0
2 156 189 0
-2 -156 -189 0
1 157 163 0
-1 -157 -163 0
2 157 190 0
-2 -157 -190 0
1 158 164 0
-1 -158 -164 0
2 158 191 0
-2 -158 -191 0
1 159 165 0
-1 -159 -165 0
2 159 192 0
-2 -159 -192 0
1 160 166 0
-1 -160 -166 0
2 160 193 0
-2 -160 -193 0
1 161 167 0
-1 -161 -167 0
2 161 194 0
-2 -161 -194 0
1 162 168 0
-1 -162 -168 0
2 162 195 0
-2 -162 -195 0
1 163 169 0
-1 -163 -169 0
2 163 196 0
-2 -163 -196 0
1 164 170 0
-1 -164 -170 0
2 164 197 0
-2 -164 -197 0
1 165 171 0
-1 -165 -171 0
2 165 198 0
-2 -165 -198 0
1 166 172 0
-1 -166 -172 0
2 166 199 0
-2 -166 -199 0
1 167 173 0
-1 -167 -173 0
2 167 200 0
-2 -167 -200 0
1 168 174 0
-1 -168 -174 0
2 168 201 0
-2 -168 -201 0
1 169 175 0
-1 -169 -175 0
2 169 202 0
-2 -169 -202 0
1 170 176 0
-1 -170 -176 0
2 170 203 0
-2 -170 -203 0
1 171 177 0
-1 -171 -177 0
2 171 204 0
-2 -171 -204 0
1 172 178 0
-1 -172 -178 0
2 172 205 0
-2 -172 -205 0
1 173 179 0
-1 -173 -179 0
1 174 180 0
-1 -174 -180 0
1 175 181 0
-1 -175 -181 0
1 176 182 0
-1 -176 -182 0
1 177 183 0
-1 -177 -183 0
1 178 184 0
-1 -178 -184 0
1 179 185 0
-1 -179 -185 0
1 180 186 0
-1 -180 -186 0
1 181 187 0
-1 -181 -187 0
1 182 188 0
-1 -182 -188 0
1 183 189 0
-1 -183 -189 0
1 184 190 0
-1 -184 -190 0
1 185 191 0
-1 -185 -191 0
1 186 192 0
-1 -186 -192 0
1 187 193 0
-1 -187 -193 0
1 188 194 0
-1 -188 -194 0
1 189 195 0
-1 -189 -195 0
1 190 196 0
-1 -190 -196 0
1 191 197 0
-1 -191 -197 0
1 192 198 0
-1 -192 -198 0
1 193 199 0
-1 -193 -199 0
1 194 200 0
-1 -194 -200 0
1 195 201 0
-1 -195 -201 0
1 196 202 0
-1 -196 -202 0
1 197 203 0
-1 -197 -203 0
1 198 204 0
-1 -198 -204 0
1 199 205 0
-1 -199 -205 0
