certificates/rado_a27_c21_N205.drat
1 -202 8 0
-1 -205 0
8 -205 0
-205 0
1 0
-7 0
175 0
37 0
-181 0
-169 0
-43 0
-31 0
13 0
199 0
-19 0
-8 0
202 0
176 0
-193 0
187 0
203 0
10 0
-196 0
-182 0
-170 0
25 0
-197 0
-16 0
-4 0
28 0
14 0
2 0
-58 0
29 0
110 0
103 0
184 0
91 0
172 0
94 0
95 0
118 0
82 0
83 0
109 0
130 0
106 0
-34 0
-61 0
-22 0
-20 0
-47 0
-35 0
-70 0
-142 0
-166 0
-46 0
-143 0
-154 0
145 0
-62 0
-23 0
-116 0
-104 0
-77 0
0
